problems/VanDerWaerdenNumbers/VanDerWaerden-models/compact/O2/lingeling/model_1-k3l4n68-solution000001.solution
language Essence 1.3

letting p be
        partition({1, 2, 5, 8, 10, 12, 13, 17, 20, 21, 23, 28, 31, 37, 40, 42, 43, 45, 47, 50, 51, 54, 56, 60, 64, 66},
                  {3, 6, 11, 18, 19, 24, 26, 34, 36, 38, 41, 44, 46, 48, 49, 52, 53, 57, 59, 63},
                  {4, 7, 9, 14, 15, 16, 22, 25, 27, 29, 30, 32, 33, 35, 39, 55, 58, 61, 62, 65, 67, 68})
